p tw 30 51
e 0 4
e 0 7
e 0 9
e 0 11
e 0 12
e 0 22
e 1 6
e 1 7
e 1 29
e 2 16
e 2 24
e 2 28
e 3 8
e 3 26
e 4 10
e 4 19
e 4 20
e 4 24
e 4 25
e 4 29
e 5 17
e 5 23
e 5 28
e 6 27
e 6 28
e 7 26
e 9 12
e 10 19
e 10 22
e 12 25
e 12 27
e 14 19
e 14 22
e 14 26
e 15 18
e 16 17
e 16 18
e 16 21
e 16 25
e 16 27
e 17 27
e 18 25
e 18 27
e 20 29
e 21 23
e 21 27
e 24 27
e 25 29
e 26 28
e 27 28
e 27 29
